branch-and-cut/resultados/B/b05.sol
61
22
23 31
5 25
3 34
23 43
24 14
47 46
18 10
25 43
18 46
7 46
20 49
25 15
16 42
35 49
3 14
47 20
49 42
3 20
10 13
20 39
37 34
18 5
