branch-and-cut/resultados/B/b05.log

Gurobi 10.0.3 (linux64) logging started Fri Dec 15 18:14:10 2023

Set parameter LogFile to value "resultados/B/b05.log"
Set parameter Cutoff to value 68
Gurobi Optimizer version 10.0.3 build v10.0.3rc0 (linux64)

CPU model: Intel(R) Core(TM) i7-8650U CPU @ 1.90GHz, instruction set [SSE2|AVX|AVX2]
Thread count: 4 physical cores, 8 logical processors, using up to 8 threads

Optimize a model with 13 rows, 100 columns and 46 nonzeros
Model fingerprint: 0x03835281
Variable types: 0 continuous, 100 integer (100 binary)
Coefficient statistics:
  Matrix range     [1e+00, 1e+00]
  Objective range  [1e+00, 1e+01]
  Bounds range     [1e+00, 1e+00]
  RHS range        [1e+00, 1e+00]
Presolve removed 1 rows and 1 columns
Presolve time: 0.00s
Presolved: 12 rows, 99 columns, 45 nonzeros
Variable types: 0 continuous, 99 integer (99 binary)

Root relaxation: objective 2.800000e+01, 11 iterations, 0.00 seconds (0.00 work units)

    Nodes    |    Current Node    |     Objective Bounds      |     Work
 Expl Unexpl |  Obj  Depth IntInf | Incumbent    BestBd   Gap | It/Node Time

     0     0   28.00000    0    -          -   28.00000      -     -    0s
     0     0   44.00000    0    -          -   44.00000      -     -    0s
     0     0   47.00000    0   12          -   47.00000      -     -    0s
     0     0   49.16667    0   10          -   49.16667      -     -    0s
     0     0   51.33333    0   11          -   51.33333      -     -    0s
     0     0   53.00000    0    -          -   53.00000      -     -    0s
     0     0   53.36667    0   22          -   53.36667      -     -    0s
     0     0   55.00000    0    7          -   55.00000      -     -    0s
     0     0   55.00000    0   12          -   55.00000      -     -    0s
     0     0   55.00000    0   14          -   55.00000      -     -    0s
     0     2   55.00000    0   14          -   55.00000      -     -    0s
*  233   200              12      61.0000000   58.72581  3.73%   9.5    0s

Cutting planes:
  User: 67
  Gomory: 2
  MIR: 10
  Lazy constraints: 126

Explored 334 nodes (2761 simplex iterations) in 0.64 seconds (0.06 work units)
Thread count was 8 (of 8 available processors)

Solution count 1: 61 

Optimal solution found (tolerance 1.00e-04)
Best objective 6.100000000000e+01, best bound 6.100000000000e+01, gap 0.0000%

User-callback calls 921, time in user-callback 0.54 sec
